LAMMPS (16 Feb 2016)
  using 1 OpenMP thread(s) per MPI task
# test BHS potential for alpha-quartz
# check the lammps manual for details

# choose unit system. see manual                       Lam Tu Ngay 23/11/2017
units		metal

# schedule
variable TK1   equal 3500
variable Pbar1 equal 50e3

# 3d periodic system
boundary	p p p

# atoms have charge
atom_style	charge

# read the unit cell structure
read_restart	restart_SiO2.dat
  orthogonal box = (3.41514 3.41514 3.41514) to (63.5499 63.5499 63.5499)
  8 by 8 by 8 MPI processor grid
  19998 atoms

group Si type 1
6666 atoms in group Si
group O type 2
13332 atoms in group O


#read_data	dataSiO2.dat

#change_box all triclinic
#change_box all ortho


# make 8x8x8 supercell. 9  atoms
#replicate       10 10 10

# BKS interaction in PRL 64 1955 (1990)
# with Ewald method for long range coulomb
pair_style hybrid/overlay buck/coul/long 10.0 mie/cut 10.0
pair_modify shift yes
pair_coeff 1 1 buck/coul/long 0.0 1.0 0.0
pair_coeff 1 2 buck/coul/long 18003.757200 0.205205 133.538100
pair_coeff 2 2 buck/coul/long 1388.773000 0.362319 175.000000
pair_coeff 1 1 mie/cut 0           1         30 6
pair_coeff 1 2 mie/cut 0.006629499 1.3133635 30 6
pair_coeff 2 2 mie/cut 0.002249211 1.779239  30 6
kspace_style ewald/disp 1e-6

# set inital velocity of particles for T=6000K
velocity	all create 3500  277387 mom yes

# set neighour atom list
neighbor	0.3 bin
neigh_modify	delay 10

# nve ensemble simulaton with dt=1 fs
timestep	0.001
thermo          10000
#thermo_style    custom step temp pxx pyy pzz pxy pxz pyz lx ly lz xy xz yz press vol
thermo_style  custom step temp press  vol density



# output xyz trajectory file
 dump 1 all xyz 5000 trajectory.xyz
 dump_modify	1 element 1 2

#dump            1 all atom 10000 SiO2_${Pbar1}bar_${TK1}K.lammpstrj


#
fix		1 all nve

compute 1 Si  msd
Resetting per-atom state of Fix 1_COMPUTE_STORE Style STORE from restart file info
fix 2  Si  ave/time  1  1   1000   c_1[4]  file SiO2_si.msd

compute 2 O  msd
Resetting per-atom state of Fix 2_COMPUTE_STORE Style STORE from restart file info
fix 3  O  ave/time  1  1   1000   c_2[4]  file SiO2_O.msd


# run 2000 time steps
#fix             1 all npt temp ${TK1}  ${TK1} 100 iso ${Pbar1} ${Pbar1} 1000
# run 1000 time  steps
restart     50000       restart.*
run         500000
EwaldDisp initialization ...
  G vector = 0.36362
Neighbor list info ...
  4 neighbor list requests
  update every 1 steps, delay 10 steps, check yes
  max neighbors/atom: 2000, page size: 100000
  master list distance cutoff = 10.3
  ghost atom cutoff = 10.3
  binsize = 5.15 -> bins = 12 12 12
  vectors: nbox = 26, nkvec = 36762
Memory usage per processor = 48.8731 Mbytes
Step Temp Press Volume Density 
19400000         3500    48030.726    217458.27    3.0584364 
19410000    3464.7125    48768.633    217458.27    3.0584364 
19420000    3489.1837    52702.002    217458.27    3.0584364 
19430000    3517.9337    48901.444    217458.27    3.0584364 
19440000    3475.7312    48284.122    217458.27    3.0584364 
19450000    3465.8179    50980.591    217458.27    3.0584364 
19460000    3462.5389    47569.752    217458.27    3.0584364 
19470000    3496.4279    50131.026    217458.27    3.0584364 
19480000    3460.8076    50360.343    217458.27    3.0584364 
19490000    3470.4573    49044.139    217458.27    3.0584364 
19500000    3457.0217    53883.419    217458.27    3.0584364 
19510000    3452.2951    52623.594    217458.27    3.0584364 
19520000    3436.5602     50487.98    217458.27    3.0584364 
19530000    3471.9807    50998.462    217458.27    3.0584364 
19540000    3455.9076    51962.974    217458.27    3.0584364 
19550000    3451.6708    48801.595    217458.27    3.0584364 
19560000    3439.5179    48730.431    217458.27    3.0584364 
19570000    3454.1202    50409.703    217458.27    3.0584364 
19580000    3468.3789    50248.622    217458.27    3.0584364 
19590000    3468.3282    54953.434    217458.27    3.0584364 
19600000    3428.5677    52650.803    217458.27    3.0584364 
19610000    3449.2017    47914.777    217458.27    3.0584364 
19620000    3453.7751    51006.571    217458.27    3.0584364 
19630000     3455.793     49467.58    217458.27    3.0584364 
19640000    3424.0565    45833.234    217458.27    3.0584364 
19650000     3425.799    51628.553    217458.27    3.0584364 
19660000    3451.6972    47306.899    217458.27    3.0584364 
19670000    3425.1908     49339.28    217458.27    3.0584364 
19680000    3415.3294    50933.834    217458.27    3.0584364 
19690000    3397.6501    49663.071    217458.27    3.0584364 
19700000    3432.0065    51953.777    217458.27    3.0584364 
19710000    3410.8488    49164.579    217458.27    3.0584364 
19720000    3412.4288    46017.973    217458.27    3.0584364 
19730000    3424.6434    53182.824    217458.27    3.0584364 
19740000    3385.8801    50092.339    217458.27    3.0584364 
19750000    3426.9835    51842.369    217458.27    3.0584364 
19760000    3423.9794     52681.34    217458.27    3.0584364 
19770000    3433.3879    50690.141    217458.27    3.0584364 
19780000    3430.6947    50576.254    217458.27    3.0584364 
19790000    3409.7781    51183.818    217458.27    3.0584364 
19800000    3407.9399     52324.92    217458.27    3.0584364 
19810000    3400.6948    50748.477    217458.27    3.0584364 
19820000    3404.8659    46299.642    217458.27    3.0584364 
19830000    3413.2685     47577.58    217458.27    3.0584364 
19840000     3416.896    49653.641    217458.27    3.0584364 
19850000    3393.9877    48602.894    217458.27    3.0584364 
19860000     3403.156    45419.823    217458.27    3.0584364 
19870000    3402.6811    50112.293    217458.27    3.0584364 
19880000    3441.3771    53651.096    217458.27    3.0584364 
19890000    3411.9574    50991.701    217458.27    3.0584364 
19900000    3383.7603    46667.319    217458.27    3.0584364 
Loop time of 74900.2 on 512 procs for 500000 steps with 19998 atoms

Performance: 0.577 ns/day, 41.611 hours/ns, 6.676 timesteps/s
100.0% CPU use with 512 MPI tasks x 1 OpenMP threads

MPI task timing breakdown:
Section |  min time  |  avg time  |  max time  |%varavg| %total
---------------------------------------------------------------
Pair    | 4483.8     | 4954.1     | 5360.2     | 257.7 |  6.61
Kspace  | 61376      | 62257      | 63039      | 135.7 | 83.12
Neigh   | 32.838     | 35.276     | 37.414     |  12.2 |  0.05
Comm    | 6638.1     | 7565.7     | 8476.3     | 371.8 | 10.10
Output  | 1.3691     | 1.5864     | 1.9007     |  10.5 |  0.00
Modify  | 6.1992     | 7.1828     | 8.6682     |  18.4 |  0.01
Other   |            | 79.57      |            |       |  0.11

Nlocal:    39.0586 ave 49 max 28 min
Histogram: 2 8 30 61 112 142 76 63 16 2
Nghost:    2005.34 ave 2055 max 1954 min
Histogram: 4 10 39 95 99 123 73 42 20 7
Neighs:    8200.56 ave 10984 max 5878 min
Histogram: 7 19 50 110 127 110 61 23 3 2

Total # of neighbors = 4198687
Ave neighs/atom = 209.955
Neighbor list builds = 50000
Dangerous builds = 49990
write_restart		restart_SiO2.dat
EwaldDisp initialization ...
  G vector = 0.36362


Total wall time: 20:48:21
