LAMMPS (16 Feb 2016)
  using 1 OpenMP thread(s) per MPI task
# test BHS potential for alpha-quartz
# check the lammps manual for details

# choose unit system. see manual                       Lam Tu Ngay 23/11/2017
units		metal

# schedule
variable TK1   equal 3500
variable Pbar1 equal 250e3

# 3d periodic system
boundary	p p p

# atoms have charge
atom_style	charge

# read the unit cell structure
read_restart	restart_SiO2.dat
  orthogonal box = (5.84418 5.84418 5.84418) to (61.1208 61.1208 61.1208)
  8 by 8 by 8 MPI processor grid
  19998 atoms

group Si type 1
6666 atoms in group Si
group O type 2
13332 atoms in group O


#read_data	dataSiO2.dat

#change_box all triclinic
#change_box all ortho


# make 8x8x8 supercell. 9  atoms
#replicate       10 10 10

# BKS interaction in PRL 64 1955 (1990)
# with Ewald method for long range coulomb
pair_style hybrid/overlay buck/coul/long 10.0 mie/cut 10.0
pair_modify shift yes
pair_coeff 1 1 buck/coul/long 0.0 1.0 0.0
pair_coeff 1 2 buck/coul/long 18003.757200 0.205205 133.538100
pair_coeff 2 2 buck/coul/long 1388.773000 0.362319 175.000000
pair_coeff 1 1 mie/cut 0           1         30 6
pair_coeff 1 2 mie/cut 0.006629499 1.3133635 30 6
pair_coeff 2 2 mie/cut 0.002249211 1.779239  30 6
kspace_style ewald/disp 1e-6

# set inital velocity of particles for T=6000K
velocity	all create 3500  277387 mom yes

# set neighour atom list
neighbor	0.3 bin
neigh_modify	delay 10

# nve ensemble simulaton with dt=1 fs
timestep	0.001
thermo          10000
#thermo_style    custom step temp pxx pyy pzz pxy pxz pyz lx ly lz xy xz yz press vol
thermo_style  custom step temp press  vol density



# output xyz trajectory file
 dump 1 all xyz 5000 trajectory.xyz
 dump_modify	1 element 1 2

#dump            1 all atom 10000 SiO2_${Pbar1}bar_${TK1}K.lammpstrj


#
fix		1 all nve

compute 1 Si  msd
Resetting per-atom state of Fix 1_COMPUTE_STORE Style STORE from restart file info
fix 2  Si  ave/time  1  1   1000   c_1[4]  file SiO2_si.msd

compute 2 O  msd
Resetting per-atom state of Fix 2_COMPUTE_STORE Style STORE from restart file info
fix 3  O  ave/time  1  1   1000   c_2[4]  file SiO2_O.msd


# run 2000 time steps
#fix             1 all npt temp ${TK1}  ${TK1} 100 iso ${Pbar1} ${Pbar1} 1000
# run 1000 time  steps
restart     50000       restart.*
run         500000
EwaldDisp initialization ...
  G vector = 0.365354
Neighbor list info ...
  4 neighbor list requests
  update every 1 steps, delay 10 steps, check yes
  max neighbors/atom: 2000, page size: 100000
  master list distance cutoff = 10.3
  ghost atom cutoff = 10.3
  binsize = 5.15 -> bins = 11 11 11
  vectors: nbox = 24, nkvec = 28888
Memory usage per processor = 44.8634 Mbytes
Step Temp Press Volume Density 
15860000         3500    253782.69    168898.17    3.9377708 
15870000    3476.2902    244076.82    168898.17    3.9377708 
15880000    3475.1627    247680.19    168898.17    3.9377708 
15890000    3453.0398    251971.26    168898.17    3.9377708 
15900000    3456.4196     250383.7    168898.17    3.9377708 
15910000    3425.4302    252511.52    168898.17    3.9377708 
15920000    3430.4171    249001.52    168898.17    3.9377708 
15930000     3462.032     250113.4    168898.17    3.9377708 
15940000    3485.6625    252484.99    168898.17    3.9377708 
15950000    3443.1512    248496.72    168898.17    3.9377708 
15960000     3461.424     251228.5    168898.17    3.9377708 
15970000    3433.6362     252606.2    168898.17    3.9377708 
15980000    3443.0382    252407.39    168898.17    3.9377708 
15990000    3451.9485    251649.45    168898.17    3.9377708 
16000000    3434.9405    245648.55    168898.17    3.9377708 
16010000    3436.6262    247932.69    168898.17    3.9377708 
16020000    3440.7719    245484.96    168898.17    3.9377708 
16030000    3408.5084    246972.93    168898.17    3.9377708 
16040000    3441.3966    250043.65    168898.17    3.9377708 
16050000    3416.9303     246779.8    168898.17    3.9377708 
16060000    3419.1207    250739.27    168898.17    3.9377708 
16070000    3427.1357    247139.65    168898.17    3.9377708 
16080000    3427.7087    248848.26    168898.17    3.9377708 
16090000    3426.3578    241781.54    168898.17    3.9377708 
16100000    3410.7436    249999.25    168898.17    3.9377708 
16110000    3421.7946    248556.42    168898.17    3.9377708 
16120000    3416.4151    253120.08    168898.17    3.9377708 
16130000    3417.4729     250078.9    168898.17    3.9377708 
16140000    3418.5231    250726.44    168898.17    3.9377708 
16150000    3408.2622    251066.54    168898.17    3.9377708 
16160000    3379.2372    246178.77    168898.17    3.9377708 
16170000    3418.8799    249129.37    168898.17    3.9377708 
16180000     3426.137    246486.13    168898.17    3.9377708 
16190000    3399.3947    242251.32    168898.17    3.9377708 
16200000    3401.5887     246437.6    168898.17    3.9377708 
16210000    3418.5705    244333.04    168898.17    3.9377708 
16220000    3389.8932    248481.17    168898.17    3.9377708 
16230000    3403.2261    248205.08    168898.17    3.9377708 
16240000     3396.929    247469.77    168898.17    3.9377708 
16250000    3367.3421    243001.11    168898.17    3.9377708 
16260000    3420.9933    247993.74    168898.17    3.9377708 
16270000    3376.7793    247349.26    168898.17    3.9377708 
16280000    3380.7407    247698.82    168898.17    3.9377708 
16290000    3385.5002    242764.03    168898.17    3.9377708 
16300000    3403.1014    244240.89    168898.17    3.9377708 
16310000    3380.6031    250192.08    168898.17    3.9377708 
16320000    3382.7836    245805.88    168898.17    3.9377708 
16330000    3340.4012    245636.44    168898.17    3.9377708 
16340000    3366.6099    249012.38    168898.17    3.9377708 
16350000    3344.1534    244684.43    168898.17    3.9377708 
16360000      3376.06    246190.06    168898.17    3.9377708 
Loop time of 61127.9 on 512 procs for 500000 steps with 19998 atoms

Performance: 0.707 ns/day, 33.960 hours/ns, 8.180 timesteps/s
99.9% CPU use with 512 MPI tasks x 1 OpenMP threads

MPI task timing breakdown:
Section |  min time  |  avg time  |  max time  |%varavg| %total
---------------------------------------------------------------
Pair    | 5746.5     | 6325.8     | 6815       | 304.4 | 10.35
Kspace  | 48604      | 49454      | 50165      | 138.7 | 80.90
Neigh   | 41.641     | 44.103     | 46.414     |  14.0 |  0.07
Comm    | 4718.9     | 5237.4     | 5894.1     | 271.1 |  8.57
Output  | 1.4472     | 1.692      | 2.0396     |  11.5 |  0.00
Modify  | 5.8187     | 7.0477     | 9.4445     |  22.9 |  0.01
Other   |            | 57.36      |            |       |  0.09

Nlocal:    39.0586 ave 47 max 30 min
Histogram: 2 7 35 41 138 146 43 73 24 3
Nghost:    2426.11 ave 2472 max 2394 min
Histogram: 3 30 93 128 110 93 41 13 0 1
Neighs:    10560.6 ave 13630 max 8236 min
Histogram: 10 33 62 114 138 79 44 25 6 1

Total # of neighbors = 5407024
Ave neighs/atom = 270.378
Neighbor list builds = 50000
Dangerous builds = 49990
write_restart		restart_SiO2.dat
EwaldDisp initialization ...
  G vector = 0.365354


Total wall time: 16:58:49
