LAMMPS (16 Feb 2016)
  using 1 OpenMP thread(s) per MPI task
# test BHS potential for alpha-quartz
# check the lammps manual for details

# choose unit system. see manual                       Lam Tu Ngay 23/11/2017
units		metal

# schedule
variable TK1   equal 3500
variable Pbar1 equal 70e3

# 3d periodic system
boundary	p p p

# atoms have charge
atom_style	charge

# read the unit cell structure
read_restart	restart_SiO2.dat
  orthogonal box = (3.88137 3.88137 3.88137) to (63.0836 63.0836 63.0836)
  8 by 8 by 8 MPI processor grid
  19998 atoms

group Si type 1
6666 atoms in group Si
group O type 2
13332 atoms in group O


#read_data	dataSiO2.dat

#change_box all triclinic
#change_box all ortho


# make 8x8x8 supercell. 9  atoms
#replicate       10 10 10

# BKS interaction in PRL 64 1955 (1990)
# with Ewald method for long range coulomb
pair_style hybrid/overlay buck/coul/long 10.0 mie/cut 10.0
pair_modify shift yes
pair_coeff 1 1 buck/coul/long 0.0 1.0 0.0
pair_coeff 1 2 buck/coul/long 18003.757200 0.205205 133.538100
pair_coeff 2 2 buck/coul/long 1388.773000 0.362319 175.000000
pair_coeff 1 1 mie/cut 0           1         30 6
pair_coeff 1 2 mie/cut 0.006629499 1.3133635 30 6
pair_coeff 2 2 mie/cut 0.002249211 1.779239  30 6
kspace_style ewald/disp 1e-6

# set inital velocity of particles for T=6000K
velocity	all create 3500  277387 mom yes

# set neighour atom list
neighbor	0.3 bin
neigh_modify	delay 10

# nve ensemble simulaton with dt=1 fs
timestep	0.001
thermo          10000
#thermo_style    custom step temp pxx pyy pzz pxy pxz pyz lx ly lz xy xz yz press vol
thermo_style  custom step temp press  vol density



# output xyz trajectory file
 dump 1 all xyz 5000 trajectory.xyz
 dump_modify	1 element 1 2

#dump            1 all atom 10000 SiO2_${Pbar1}bar_${TK1}K.lammpstrj


#
fix		1 all nve

compute 1 Si  msd
fix 2  Si  ave/time  1  1   1000   c_1[4]  file SiO2_si.msd

compute 2 O  msd
fix 3  O  ave/time  1  1   1000   c_2[4]  file SiO2_O.msd


# run 2000 time steps
#fix             1 all npt temp ${TK1}  ${TK1} 50 iso ${Pbar1} ${Pbar1} 500
# run 1000 time  steps
restart     50000       restart.*
run         500000
EwaldDisp initialization ...
  G vector = 0.363942
Neighbor list info ...
  4 neighbor list requests
  update every 1 steps, delay 10 steps, check yes
  max neighbors/atom: 2000, page size: 100000
  master list distance cutoff = 10.3
  ghost atom cutoff = 10.3
  binsize = 5.15 -> bins = 12 12 12
  vectors: nbox = 25, nkvec = 32633
Memory usage per processor = 46.8399 Mbytes
Step Temp Press Volume Density 
20900000         3500    68808.368    207498.42    3.2052402 
20910000     3487.599    71889.605    207498.42    3.2052402 
20920000    3497.1749    71047.024    207498.42    3.2052402 
20930000    3462.4573    67043.489    207498.42    3.2052402 
20940000    3476.3049    69765.535    207498.42    3.2052402 
20950000    3455.5042    69818.188    207498.42    3.2052402 
20960000    3460.3816    69100.163    207498.42    3.2052402 
20970000    3471.9501     70716.93    207498.42    3.2052402 
20980000    3456.3862    73591.368    207498.42    3.2052402 
20990000    3432.1457     71045.35    207498.42    3.2052402 
21000000    3464.7981    69276.746    207498.42    3.2052402 
21010000    3485.6911    71901.358    207498.42    3.2052402 
21020000     3457.261    70813.851    207498.42    3.2052402 
21030000     3464.312    66193.823    207498.42    3.2052402 
21040000    3431.3722      73890.4    207498.42    3.2052402 
21050000    3427.9653     71884.43    207498.42    3.2052402 
21060000    3449.1921    69710.663    207498.42    3.2052402 
21070000    3459.4365    71273.923    207498.42    3.2052402 
21080000     3443.023    74584.121    207498.42    3.2052402 
21090000    3433.9483    69818.443    207498.42    3.2052402 
21100000    3442.9467    67724.478    207498.42    3.2052402 
21110000    3416.4084    70273.193    207498.42    3.2052402 
21120000    3439.4153    66296.955    207498.42    3.2052402 
21130000      3422.27    67399.014    207498.42    3.2052402 
21140000    3445.6648    70932.832    207498.42    3.2052402 
21150000      3429.57    68877.796    207498.42    3.2052402 
21160000    3451.0688    71722.248    207498.42    3.2052402 
21170000    3392.7393    66633.246    207498.42    3.2052402 
21180000    3433.1831    73576.765    207498.42    3.2052402 
21190000    3415.7698    67766.498    207498.42    3.2052402 
21200000    3427.6276    67197.492    207498.42    3.2052402 
21210000    3415.8345     66003.59    207498.42    3.2052402 
21220000    3431.4064    68533.277    207498.42    3.2052402 
21230000     3419.605    69427.283    207498.42    3.2052402 
21240000    3459.8982    72969.482    207498.42    3.2052402 
21250000    3426.5544    64558.679    207498.42    3.2052402 
21260000    3418.0798    69083.554    207498.42    3.2052402 
21270000    3372.2693    70856.361    207498.42    3.2052402 
21280000    3405.9792    72181.478    207498.42    3.2052402 
21290000    3407.1926    70484.732    207498.42    3.2052402 
21300000    3418.7934    71858.834    207498.42    3.2052402 
21310000    3413.2977    71668.833    207498.42    3.2052402 
21320000    3381.5034    71100.156    207498.42    3.2052402 
21330000    3398.1002    69455.876    207498.42    3.2052402 
21340000    3378.9707    67959.999    207498.42    3.2052402 
21350000    3401.9502    66502.593    207498.42    3.2052402 
21360000    3412.9473     69644.11    207498.42    3.2052402 
21370000    3396.6897    67386.674    207498.42    3.2052402 
21380000    3415.9073    70024.476    207498.42    3.2052402 
21390000    3368.4808    69028.733    207498.42    3.2052402 
21400000    3377.6423    68501.812    207498.42    3.2052402 
Loop time of 67336.2 on 512 procs for 500000 steps with 19998 atoms

Performance: 0.642 ns/day, 37.409 hours/ns, 7.425 timesteps/s
99.9% CPU use with 512 MPI tasks x 1 OpenMP threads

MPI task timing breakdown:
Section |  min time  |  avg time  |  max time  |%varavg| %total
---------------------------------------------------------------
Pair    | 4706.3     | 5146.5     | 5558.7     | 256.2 |  7.64
Kspace  | 54679      | 55458      | 56529      | 136.4 | 82.36
Neigh   | 33.286     | 35.606     | 38.133     |  12.7 |  0.05
Comm    | 5750.9     | 6616.9     | 7413.1     | 337.7 |  9.83
Output  | 1.4136     | 1.6408     | 1.971      |  11.1 |  0.00
Modify  | 5.9551     | 7.1462     | 10.199     |  22.7 |  0.01
Other   |            | 70.49      |            |       |  0.10

Nlocal:    39.0586 ave 47 max 31 min
Histogram: 6 30 25 100 58 132 96 27 27 11
Nghost:    2079.83 ave 2135 max 2028 min
Histogram: 3 18 41 90 136 100 72 37 13 2
Neighs:    8596.54 ave 10679 max 6604 min
Histogram: 7 28 51 83 95 106 68 47 18 9

Total # of neighbors = 4401428
Ave neighs/atom = 220.093
Neighbor list builds = 50000
Dangerous builds = 49990
write_restart		restart_SiO2.dat
EwaldDisp initialization ...
  G vector = 0.363942


Total wall time: 18:42:17
