LAMMPS (16 Feb 2016)
  using 1 OpenMP thread(s) per MPI task
# test BHS potential for alpha-quartz
# check the lammps manual for details

# choose unit system. see manual                       Lam Tu Ngay 23/11/2017
units		metal

# schedule
variable TK1   equal 3500
variable Pbar1 equal 1000e3

# 3d periodic system
boundary	p p p

# atoms have charge
atom_style	charge

# read the unit cell structure
read_restart	restart_SiO2.dat
  orthogonal box = (7.96997 7.96997 7.96997) to (58.995 58.995 58.995)
  8 by 8 by 8 MPI processor grid
  19998 atoms

group Si type 1
6666 atoms in group Si
group O type 2
13332 atoms in group O


#read_data	dataSiO2.dat

#change_box all triclinic
#change_box all ortho


# make 8x8x8 supercell. 9  atoms
#replicate       10 10 10

# BKS interaction in PRL 64 1955 (1990)
# with Ewald method for long range coulomb
pair_style hybrid/overlay buck/coul/long 10.0 mie/cut 10.0
pair_modify shift yes
pair_coeff 1 1 buck/coul/long 0.0 1.0 0.0
pair_coeff 1 2 buck/coul/long 18003.757200 0.205205 133.538100
pair_coeff 2 2 buck/coul/long 1388.773000 0.362319 175.000000
pair_coeff 1 1 mie/cut 0           1         30 6
pair_coeff 1 2 mie/cut 0.006629499 1.3133635 30 6
pair_coeff 2 2 mie/cut 0.002249211 1.779239  30 6
kspace_style ewald/disp 1e-6

# set inital velocity of particles for T=6000K
velocity	all create 3500  277387 mom yes

# set neighour atom list
neighbor	0.3 bin
neigh_modify	delay 10

# nve ensemble simulaton with dt=1 fs
timestep	0.001
thermo          10000
#thermo_style    custom step temp pxx pyy pzz pxy pxz pyz lx ly lz xy xz yz press vol
thermo_style  custom step temp press  vol density



# output xyz trajectory file
 dump 1 all xyz 5000 trajectory.xyz
 dump_modify	1 element 1 2

#dump            1 all atom 10000 SiO2_${Pbar1}bar_${TK1}K.lammpstrj


#
fix		1 all nve

compute 1 Si  msd
Resetting per-atom state of Fix 1_COMPUTE_STORE Style STORE from restart file info
fix 2  Si  ave/time  1  1   1000   c_1[4]  file SiO2_si.msd

compute 2 O  msd
Resetting per-atom state of Fix 2_COMPUTE_STORE Style STORE from restart file info
fix 3  O  ave/time  1  1   1000   c_2[4]  file SiO2_O.msd


# run 2000 time steps
#fix             1 all npt temp ${TK1}  ${TK1} 100 iso ${Pbar1} ${Pbar1} 1000
# run 1000 time  steps
restart     50000       restart.*
run         500000
EwaldDisp initialization ...
  G vector = 0.366993
Neighbor list info ...
  4 neighbor list requests
  update every 1 steps, delay 10 steps, check yes
  max neighbors/atom: 2000, page size: 100000
  master list distance cutoff = 10.3
  ghost atom cutoff = 10.3
  binsize = 5.15 -> bins = 10 10 10
  vectors: nbox = 22, nkvec = 22236
Memory usage per processor = 40.5148 Mbytes
Step Temp Press Volume Density 
17650000         3500    1001072.2    132846.68    5.0063899 
17660000    3527.5819    997996.24    132846.68    5.0063899 
17670000    3529.0663    997944.72    132846.68    5.0063899 
17680000    3514.2157    998080.31    132846.68    5.0063899 
17690000     3500.414    997161.66    132846.68    5.0063899 
17700000    3532.5803    996102.01    132846.68    5.0063899 
17710000    3521.4431    998436.68    132846.68    5.0063899 
17720000    3496.6057     998348.3    132846.68    5.0063899 
17730000    3518.7902     996327.4    132846.68    5.0063899 
17740000    3509.3617    1000808.7    132846.68    5.0063899 
17750000    3470.1153    995720.28    132846.68    5.0063899 
17760000     3484.453    997692.29    132846.68    5.0063899 
17770000    3493.5181    998391.18    132846.68    5.0063899 
17780000    3491.7724    996587.97    132846.68    5.0063899 
17790000    3501.3765    995190.02    132846.68    5.0063899 
17800000     3463.427    999138.86    132846.68    5.0063899 
17810000    3457.6296    996066.23    132846.68    5.0063899 
17820000    3475.5298    999427.59    132846.68    5.0063899 
17830000    3485.7093    994892.29    132846.68    5.0063899 
17840000    3465.3616    996015.85    132846.68    5.0063899 
17850000    3445.5673    1001391.4    132846.68    5.0063899 
17860000    3423.3875    994568.96    132846.68    5.0063899 
17870000    3448.7324    994314.34    132846.68    5.0063899 
17880000    3451.6768    992860.51    132846.68    5.0063899 
17890000     3436.988    995325.67    132846.68    5.0063899 
17900000    3438.1144    994908.91    132846.68    5.0063899 
17910000    3449.4745    996831.32    132846.68    5.0063899 
17920000    3429.0535    995039.44    132846.68    5.0063899 
17930000    3443.5454     996295.1    132846.68    5.0063899 
17940000    3448.3567    995658.29    132846.68    5.0063899 
17950000     3438.953    997642.86    132846.68    5.0063899 
17960000    3417.9304    995622.79    132846.68    5.0063899 
17970000     3403.608    992716.43    132846.68    5.0063899 
17980000    3415.9839    996322.97    132846.68    5.0063899 
17990000    3406.2374    995467.74    132846.68    5.0063899 
18000000    3412.5319    994791.54    132846.68    5.0063899 
18010000    3393.5088    997267.67    132846.68    5.0063899 
18020000    3407.6947    997372.44    132846.68    5.0063899 
18030000     3402.656    993740.22    132846.68    5.0063899 
18040000    3405.7602    995596.35    132846.68    5.0063899 
18050000    3381.3295       995358    132846.68    5.0063899 
18060000    3401.9454    994855.76    132846.68    5.0063899 
18070000     3387.503    993366.84    132846.68    5.0063899 
18080000    3400.4588    994313.46    132846.68    5.0063899 
18090000    3406.0462    993896.61    132846.68    5.0063899 
18100000    3386.5083    994428.54    132846.68    5.0063899 
18110000    3366.6793    995021.89    132846.68    5.0063899 
18120000    3387.1288    994611.44    132846.68    5.0063899 
18130000    3363.3788    995650.14    132846.68    5.0063899 
18140000    3381.2147     989990.9    132846.68    5.0063899 
18150000    3351.3846    989766.52    132846.68    5.0063899 
Loop time of 50011.9 on 512 procs for 500000 steps with 19998 atoms

Performance: 0.864 ns/day, 27.784 hours/ns, 9.998 timesteps/s
99.9% CPU use with 512 MPI tasks x 1 OpenMP threads

MPI task timing breakdown:
Section |  min time  |  avg time  |  max time  |%varavg| %total
---------------------------------------------------------------
Pair    | 6944.9     | 8044.2     | 9023.1     | 382.3 | 16.08
Kspace  | 37356      | 38587      | 40009      | 229.4 | 77.16
Neigh   | 49.921     | 56.037     | 62.471     |  30.3 |  0.11
Comm    | 1478.8     | 3281.6     | 5047.9     |1130.9 |  6.56
Output  | 1.3055     | 1.5206     | 1.8306     |  10.7 |  0.00
Modify  | 5.699      | 6.9506     | 9.9688     |  24.5 |  0.01
Other   |            | 34.1       |            |       |  0.07

Nlocal:    39.0586 ave 46 max 33 min
Histogram: 8 14 33 154 78 96 104 18 4 3
Nghost:    2918.29 ave 2959 max 2880 min
Histogram: 4 14 50 98 129 85 74 38 14 6
Neighs:    13517.7 ave 15962 max 10885 min
Histogram: 3 10 34 77 122 112 74 49 20 11

Total # of neighbors = 6921051
Ave neighs/atom = 346.087
Neighbor list builds = 50000
Dangerous builds = 49990
write_restart		restart_SiO2.dat
EwaldDisp initialization ...
  G vector = 0.366993


Total wall time: 13:53:32
