LAMMPS (16 Feb 2016)
  using 1 OpenMP thread(s) per MPI task
# test BHS potential for alpha-quartz
# check the lammps manual for details

# choose unit system. see manual                       Lam Tu Ngay 23/11/2017
units		metal

# schedule
variable TK1   equal 3500
variable Pbar1 equal 800e3

# 3d periodic system
boundary	p p p

# atoms have charge
atom_style	charge

# read the unit cell structure
read_restart	restart_SiO2.dat
  orthogonal box = (7.7226 7.7226 7.7226) to (59.2424 59.2424 59.2424)
  8 by 8 by 8 MPI processor grid
  19998 atoms

group Si type 1
6666 atoms in group Si
group O type 2
13332 atoms in group O


#read_data	dataSiO2.dat

#change_box all triclinic
#change_box all ortho


# make 8x8x8 supercell. 9  atoms
#replicate       10 10 10

# BKS interaction in PRL 64 1955 (1990)
# with Ewald method for long range coulomb
pair_style hybrid/overlay buck/coul/long 10.0 mie/cut 10.0
pair_modify shift yes
pair_coeff 1 1 buck/coul/long 0.0 1.0 0.0
pair_coeff 1 2 buck/coul/long 18003.757200 0.205205 133.538100
pair_coeff 2 2 buck/coul/long 1388.773000 0.362319 175.000000
pair_coeff 1 1 mie/cut 0           1         30 6
pair_coeff 1 2 mie/cut 0.006629499 1.3133635 30 6
pair_coeff 2 2 mie/cut 0.002249211 1.779239  30 6
kspace_style ewald/disp 1e-6

# set inital velocity of particles for T=6000K
velocity	all create 3500  277387 mom yes

# set neighour atom list
neighbor	0.3 bin
neigh_modify	delay 10

# nve ensemble simulaton with dt=1 fs
timestep	0.001
thermo          10000
#thermo_style    custom step temp pxx pyy pzz pxy pxz pyz lx ly lz xy xz yz press vol
thermo_style  custom step temp press  vol density



# output xyz trajectory file
 dump 1 all xyz 5000 trajectory2.xyz
 dump_modify	1 element 1 2

#dump            1 all atom 10000 SiO2_${Pbar1}bar_${TK1}K.lammpstrj


#
fix		1 all nve

compute 1 Si  msd
Resetting per-atom state of Fix 1_COMPUTE_STORE Style STORE from restart file info
fix 2  Si  ave/time  1  1   1000   c_1[4]  file SiO2_si.msd

compute 2 O  msd
Resetting per-atom state of Fix 2_COMPUTE_STORE Style STORE from restart file info
fix 3  O  ave/time  1  1   1000   c_2[4]  file SiO2_O.msd


# run 2000 time steps
#fix             1 all npt temp ${TK1}  ${TK1} 100 iso ${Pbar1} ${Pbar1} 1000
# run 1000 time  steps
restart     50000       restart.*
run         500000
EwaldDisp initialization ...
  G vector = 0.366796
Neighbor list info ...
  4 neighbor list requests
  update every 1 steps, delay 10 steps, check yes
  max neighbors/atom: 2000, page size: 100000
  master list distance cutoff = 10.3
  ghost atom cutoff = 10.3
  binsize = 5.15 -> bins = 11 11 11
  vectors: nbox = 23, nkvec = 25441
Memory usage per processor = 42.4295 Mbytes
Step Temp Press Volume Density 
17650000         3500    801468.64    136748.52    4.8635429 
17660000    3459.1019    800288.22    136748.52    4.8635429 
17670000    3473.2303    802472.56    136748.52    4.8635429 
17680000     3481.691    800212.59    136748.52    4.8635429 
17690000    3456.8167     801465.4    136748.52    4.8635429 
17700000    3461.4525    805195.39    136748.52    4.8635429 
17710000    3443.6875    798512.38    136748.52    4.8635429 
17720000    3458.3613    802184.49    136748.52    4.8635429 
17730000    3448.4934    800236.97    136748.52    4.8635429 
17740000    3438.9688    799008.51    136748.52    4.8635429 
17750000    3455.8601    799256.71    136748.52    4.8635429 
17760000    3473.6679    801504.36    136748.52    4.8635429 
17770000    3414.5855    797551.85    136748.52    4.8635429 
17780000    3428.8594    799083.67    136748.52    4.8635429 
17790000    3409.7772    799274.97    136748.52    4.8635429 
17800000    3419.4917    798850.24    136748.52    4.8635429 
17810000    3439.0143    799560.23    136748.52    4.8635429 
17820000    3407.2005    798399.06    136748.52    4.8635429 
17830000     3418.165    796802.99    136748.52    4.8635429 
17840000    3429.8378     798603.2    136748.52    4.8635429 
17850000    3427.9593    795717.23    136748.52    4.8635429 
17860000    3399.8723    798566.01    136748.52    4.8635429 
17870000    3404.3558    799957.94    136748.52    4.8635429 
17880000    3399.8952     797283.2    136748.52    4.8635429 
17890000    3387.3364    796272.59    136748.52    4.8635429 
17900000    3416.9292    798492.04    136748.52    4.8635429 
17910000     3400.947    797962.05    136748.52    4.8635429 
17920000    3398.0653    796261.22    136748.52    4.8635429 
17930000    3410.5165    793469.64    136748.52    4.8635429 
17940000    3384.4363    798345.77    136748.52    4.8635429 
17950000      3376.47    795493.78    136748.52    4.8635429 
17960000    3398.5323    798698.79    136748.52    4.8635429 
17970000    3388.5422    796002.62    136748.52    4.8635429 
17980000    3385.0568    794456.97    136748.52    4.8635429 
17990000    3375.2333    794047.98    136748.52    4.8635429 
18000000    3385.1384     795936.1    136748.52    4.8635429 
18010000    3363.3271     796961.3    136748.52    4.8635429 
18020000    3356.1341    794842.14    136748.52    4.8635429 
18030000    3356.7208    797565.18    136748.52    4.8635429 
18040000    3367.0818    796946.58    136748.52    4.8635429 
18050000    3345.2183    793978.17    136748.52    4.8635429 
18060000    3378.1028    793265.58    136748.52    4.8635429 
18070000    3365.6484    795134.27    136748.52    4.8635429 
18080000    3337.2937     795727.9    136748.52    4.8635429 
18090000    3346.9506    793573.19    136748.52    4.8635429 
18100000    3348.4689    794758.72    136748.52    4.8635429 
18110000    3318.8975    792881.64    136748.52    4.8635429 
18120000    3315.8144    795999.29    136748.52    4.8635429 
18130000    3340.1188     793297.1    136748.52    4.8635429 
18140000    3344.1917    791495.91    136748.52    4.8635429 
18150000    3315.2602    792734.54    136748.52    4.8635429 
Loop time of 54441.4 on 512 procs for 500000 steps with 19998 atoms

Performance: 0.794 ns/day, 30.245 hours/ns, 9.184 timesteps/s
99.9% CPU use with 512 MPI tasks x 1 OpenMP threads

MPI task timing breakdown:
Section |  min time  |  avg time  |  max time  |%varavg| %total
---------------------------------------------------------------
Pair    | 6567.2     | 7839.4     | 8968.4     | 431.5 | 14.40
Kspace  | 41866      | 43024      | 44483      | 239.0 | 79.03
Neigh   | 43.949     | 49.643     | 56.511     |  26.0 |  0.09
Comm    | 1358.8     | 3481.4     | 5924.5     |1082.6 |  6.39
Output  | 1.041      | 1.2528     | 1.5628     |  11.8 |  0.00
Modify  | 5.6684     | 6.7632     | 8.4569     |  20.4 |  0.01
Other   |            | 38.76      |            |       |  0.07

Nlocal:    39.0586 ave 45 max 34 min
Histogram: 14 30 55 106 114 85 47 38 17 6
Nghost:    2853.65 ave 2886 max 2821 min
Histogram: 3 11 35 93 130 98 84 27 21 10
Neighs:    13096.8 ave 15434 max 10751 min
Histogram: 6 14 54 75 109 105 72 49 20 8

Total # of neighbors = 6705538
Ave neighs/atom = 335.31
Neighbor list builds = 50000
Dangerous builds = 49990
write_restart		restart_SiO2.dat
EwaldDisp initialization ...
  G vector = 0.366796


Total wall time: 15:07:22
