LAMMPS (16 Feb 2016)
  using 1 OpenMP thread(s) per MPI task
# test BHS potential for alpha-quartz
# check the lammps manual for details

# choose unit system. see manual                       Lam Tu Ngay 23/11/2017
units		metal

# schedule
variable TK1   equal 3500
variable Pbar1 equal 20e3

# 3d periodic system
boundary	p p p

# atoms have charge
atom_style	charge

# read the unit cell structure
read_restart	restart_SiO2.dat
  orthogonal box = (2.39672 2.39672 2.39672) to (64.5683 64.5683 64.5683)
  8 by 8 by 8 MPI processor grid
  19998 atoms

group Si type 1
6666 atoms in group Si
group O type 2
13332 atoms in group O


#read_data	dataSiO2.dat

#change_box all triclinic
#change_box all ortho


# make 8x8x8 supercell. 9  atoms
#replicate       10 10 10

# BKS interaction in PRL 64 1955 (1990)
# with Ewald method for long range coulomb
pair_style hybrid/overlay buck/coul/long 10.0 mie/cut 10.0
pair_modify shift yes
pair_coeff 1 1 buck/coul/long 0.0 1.0 0.0
pair_coeff 1 2 buck/coul/long 18003.757200 0.205205 133.538100
pair_coeff 2 2 buck/coul/long 1388.773000 0.362319 175.000000
pair_coeff 1 1 mie/cut 0           1         30 6
pair_coeff 1 2 mie/cut 0.006629499 1.3133635 30 6
pair_coeff 2 2 mie/cut 0.002249211 1.779239  30 6
kspace_style ewald/disp 1e-6

# set inital velocity of particles for T=6000K
velocity	all create 3500  277387 mom yes

# set neighour atom list
neighbor	0.3 bin
neigh_modify	delay 10

# nve ensemble simulaton with dt=1 fs
timestep	0.001
thermo          10000
#thermo_style    custom step temp pxx pyy pzz pxy pxz pyz lx ly lz xy xz yz press vol
thermo_style  custom step temp press  vol density



# output xyz trajectory file
 dump 1 all xyz 5000 trajectory.xyz
 dump_modify	1 element 1 2

#dump            1 all atom 10000 SiO2_${Pbar1}bar_${TK1}K.lammpstrj


#
fix		1 all nve

compute 1 Si  msd
Resetting per-atom state of Fix 1_COMPUTE_STORE Style STORE from restart file info
fix 2  Si  ave/time  1  1   1000   c_1[4]  file SiO2_si.msd

compute 2 O  msd
Resetting per-atom state of Fix 2_COMPUTE_STORE Style STORE from restart file info
fix 3  O  ave/time  1  1   1000   c_2[4]  file SiO2_O.msd


# run 2000 time steps
#fix             1 all npt temp ${TK1}  ${TK1} 100 iso ${Pbar1} ${Pbar1} 1000
# run 1000 time  steps
restart     50000       restart.*
run         500000
EwaldDisp initialization ...
  G vector = 0.362933
Neighbor list info ...
  4 neighbor list requests
  update every 1 steps, delay 10 steps, check yes
  max neighbors/atom: 2000, page size: 100000
  master list distance cutoff = 10.3
  ghost atom cutoff = 10.3
  binsize = 5.15 -> bins = 13 13 13
  vectors: nbox = 27, nkvec = 41259
Memory usage per processor = 50.9517 Mbytes
Step Temp Press Volume Density 
18160000         3500    18141.619    240311.89    2.7675796 
18170000    3478.5554    16679.922    240311.89    2.7675796 
18180000    3494.4891    18744.092    240311.89    2.7675796 
18190000    3467.4098    19322.108    240311.89    2.7675796 
18200000     3479.146    19835.896    240311.89    2.7675796 
18210000     3484.271    20096.306    240311.89    2.7675796 
18220000    3485.7443    20985.201    240311.89    2.7675796 
18230000    3497.3588    16651.157    240311.89    2.7675796 
18240000    3482.3449    17538.267    240311.89    2.7675796 
18250000    3485.0343    17234.187    240311.89    2.7675796 
18260000    3462.9925     16869.84    240311.89    2.7675796 
18270000    3433.8604    17250.904    240311.89    2.7675796 
18280000    3465.3966    22493.985    240311.89    2.7675796 
18290000    3451.4117      19075.7    240311.89    2.7675796 
18300000    3477.2168    20775.834    240311.89    2.7675796 
18310000    3439.1616    18188.713    240311.89    2.7675796 
18320000    3479.0168    23740.778    240311.89    2.7675796 
18330000    3435.0434     17179.28    240311.89    2.7675796 
18340000    3449.4874    15006.647    240311.89    2.7675796 
18350000    3442.6969    18279.467    240311.89    2.7675796 
18360000    3458.0556    19354.448    240311.89    2.7675796 
18370000    3477.5957    17742.259    240311.89    2.7675796 
18380000    3472.4719    17604.087    240311.89    2.7675796 
18390000    3466.7934    21128.986    240311.89    2.7675796 
18400000    3455.1482    20755.714    240311.89    2.7675796 
18410000    3444.1337     17557.43    240311.89    2.7675796 
18420000    3480.9089    19990.444    240311.89    2.7675796 
18430000     3467.826    19059.466    240311.89    2.7675796 
18440000    3439.3471    20723.745    240311.89    2.7675796 
18450000     3414.362    17864.974    240311.89    2.7675796 
18460000    3447.9292     18041.71    240311.89    2.7675796 
18470000    3444.1609    18053.306    240311.89    2.7675796 
18480000    3444.2478    21536.285    240311.89    2.7675796 
18490000    3410.0418    16683.969    240311.89    2.7675796 
18500000    3422.3274     20056.14    240311.89    2.7675796 
18510000    3429.2421    19686.432    240311.89    2.7675796 
18520000    3415.1133    16278.831    240311.89    2.7675796 
18530000    3416.5548    19336.788    240311.89    2.7675796 
18540000    3422.8888    21756.515    240311.89    2.7675796 
18550000    3441.2486    18134.211    240311.89    2.7675796 
18560000      3430.37    19887.733    240311.89    2.7675796 
18570000    3424.6375    20648.459    240311.89    2.7675796 
18580000    3433.6649    21012.017    240311.89    2.7675796 
18590000    3433.5294    18508.965    240311.89    2.7675796 
18600000    3427.7193    18360.069    240311.89    2.7675796 
18610000     3421.226    19300.542    240311.89    2.7675796 
18620000    3408.9867    15549.079    240311.89    2.7675796 
18630000     3415.272    16306.523    240311.89    2.7675796 
18640000    3427.9111    19510.198    240311.89    2.7675796 
18650000    3414.5739    14293.534    240311.89    2.7675796 
18660000    3386.2725    16051.587    240311.89    2.7675796 
Loop time of 83466.9 on 512 procs for 500000 steps with 19998 atoms

Performance: 0.518 ns/day, 46.371 hours/ns, 5.990 timesteps/s
100.0% CPU use with 512 MPI tasks x 1 OpenMP threads

MPI task timing breakdown:
Section |  min time  |  avg time  |  max time  |%varavg| %total
---------------------------------------------------------------
Pair    | 4004.4     | 4466.5     | 4993.5     | 377.9 |  5.35
Kspace  | 68447      | 69948      | 71617      | 193.1 | 83.80
Neigh   | 28.171     | 30.571     | 33.151     |  20.4 |  0.04
Comm    | 7516.6     | 8918       | 10530      | 467.9 | 10.68
Output  | 1.3733     | 1.6123     | 1.9601     |  11.6 |  0.00
Modify  | 6.2866     | 7.3719     | 9.6286     |  22.2 |  0.01
Other   |            | 95         |            |       |  0.11

Nlocal:    39.0586 ave 49 max 29 min
Histogram: 4 5 35 74 101 118 104 48 17 6
Nghost:    1857.78 ave 1913 max 1789 min
Histogram: 2 2 17 42 104 151 119 58 15 2
Neighs:    7418.21 ave 9793 max 5074 min
Histogram: 5 8 47 91 120 100 81 37 19 4

Total # of neighbors = 3798121
Ave neighs/atom = 189.925
Neighbor list builds = 50000
Dangerous builds = 49990
write_restart		restart_SiO2.dat
EwaldDisp initialization ...
  G vector = 0.362933


Total wall time: 23:11:07
